PARAMETER_FILE = even/even_uncomplete_graph_new/seg/par/random41.par
PROBLEM_FILE = even/even_uncomplete_graph_new/seg/mat/random41.tsp
Successes/Runs = 0/10
Cost.min = 496, Cost.avg = 496.00, Cost.max = 496
Gap.min = 0.0000%, Gap.avg = 0.0000%, Gap.max = 0.0000%
Trials.min = 1000, Trials.avg = 1000.0, Trials.max = 1000
Time.min = 0.04 sec., Time.avg = 0.04 sec., Time.max = 0.04 sec.
Time.total = 0.40 sec.
